NAME : P113122.49212.tour
COMMENT : Length = 49212
COMMENT : Found by LKH-3 [Keld Helsgaun] Tue Dec 17 14:07:03 2024
TYPE : TOUR
DIMENSION : 140
TOUR_SECTION
1
121
2
122
3
123
4
21
124
5
125
6
28
76
85
80
75
83
84
82
81
79
72
78
73
30
74
77
126
7
25
127
8
128
9
33
129
10
130
11
54
49
48
47
38
37
44
42
45
39
46
51
40
41
50
53
52
43
29
131
12
35
132
13
92
101
98
100
90
93
97
86
96
87
89
94
99
88
102
95
91
133
14
134
15
135
16
31
27
117
111
113
119
116
114
105
107
118
109
112
103
104
110
106
108
120
115
22
57
60
58
63
61
62
64
70
66
67
55
56
69
65
71
59
68
23
26
136
17
34
36
32
137
18
138
19
24
139
20
140
-1
EOF
